33
75
52	1
49	2
48	1
46	3
45	2
44	1
41	3
39	1
38	2
36	2
35	1
34	3
33	1
32	1
31	1
30	2
29	1
28	2
26	1
24	1
23	2
22	1
21	1
20	2
19	1
15	2
14	1
13	1
12	1
10	1
9	2
8	2
7	1
